<?xml version = "1.0" encoding="UTF-8" standalone="yes"?>
<CPLEXSolution version="1.2">
 <header
   problemName="IloCplex"
   solutionName="p0"
   solutionIndex="-1"
   objectiveValue="231168"
   solutionTypeValue="3"
   solutionTypeString="primal"
   solutionStatusValue="127"
   solutionStatusString="integer feasible solution"
   solutionMethodString="mip"
   primalFeasible="0"
   dualFeasible="0"
   writeLevel="3"/>
 <quality
   epInt="1.0000000000000001e-05"
   epRHS="9.9999999999999995e-07"
   maxIntInfeas="0"
   maxPrimalInfeas="0"
   maxX="688"
   maxSlack="588"/>
 <variables>
  <variable index="4" value="688"/>
  <variable index="6" value="688"/>
  <variable index="8" value="688"/>
  <variable index="109" value="1"/>
  <variable index="194" value="1"/>
  <variable index="271" value="1"/>
  <variable index="365" value="1"/>
  <variable index="425" value="1"/>
  <variable index="543" value="1"/>
  <variable index="649" value="1"/>
  <variable index="776" value="1"/>
  <variable index="838" value="1"/>
  <variable index="962" value="1"/>
  <variable index="1103" value="1"/>
  <variable index="1129" value="1"/>
  <variable index="1269" value="1"/>
  <variable index="1333" value="1"/>
  <variable index="1475" value="1"/>
  <variable index="1592" value="1"/>
  <variable index="1674" value="1"/>
  <variable index="1767" value="1"/>
  <variable index="1881" value="1"/>
  <variable index="1990" value="1"/>
  <variable index="2051" value="1"/>
  <variable index="2119" value="1"/>
  <variable index="2228" value="1"/>
  <variable index="2393" value="1"/>
  <variable index="2431" value="1"/>
  <variable index="2534" value="1"/>
  <variable index="2645" value="1"/>
  <variable index="2778" value="1"/>
  <variable index="2822" value="1"/>
  <variable index="2915" value="1"/>
  <variable index="3073" value="1"/>
  <variable index="3126" value="1"/>
  <variable index="3260" value="1"/>
  <variable index="3389" value="1"/>
  <variable index="3412" value="1"/>
  <variable index="3572" value="1"/>
  <variable index="3687" value="1"/>
  <variable index="3802" value="1"/>
  <variable index="3906" value="1"/>
  <variable index="3930" value="1"/>
  <variable index="4047" value="1"/>
  <variable index="4141" value="1"/>
  <variable index="4284" value="1"/>
  <variable index="4332" value="1"/>
  <variable index="4498" value="1"/>
  <variable index="4511" value="1"/>
  <variable index="4654" value="1"/>
  <variable index="4761" value="1"/>
  <variable index="4864" value="1"/>
  <variable index="5005" value="1"/>
  <variable index="5080" value="1"/>
  <variable index="5144" value="1"/>
  <variable index="5252" value="1"/>
  <variable index="5408" value="1"/>
  <variable index="5495" value="1"/>
  <variable index="5557" value="1"/>
  <variable index="5700" value="1"/>
  <variable index="5799" value="1"/>
  <variable index="5863" value="1"/>
  <variable index="5979" value="1"/>
  <variable index="6086" value="1"/>
  <variable index="6191" value="1"/>
  <variable index="6221" value="1"/>
  <variable index="6407" value="1"/>
  <variable index="6437" value="1"/>
  <variable index="6516" value="1"/>
  <variable index="6623" value="1"/>
  <variable index="6782" value="1"/>
  <variable index="6866" value="1"/>
  <variable index="6955" value="1"/>
  <variable index="7097" value="1"/>
  <variable index="7110" value="1"/>
  <variable index="7218" value="1"/>
  <variable index="7368" value="1"/>
  <variable index="7442" value="1"/>
  <variable index="7585" value="1"/>
  <variable index="7658" value="1"/>
  <variable index="7740" value="1"/>
  <variable index="7817" value="1"/>
  <variable index="7935" value="1"/>
  <variable index="8048" value="1"/>
  <variable index="8156" value="1"/>
  <variable index="8239" value="1"/>
  <variable index="8377" value="1"/>
  <variable index="8483" value="1"/>
  <variable index="8570" value="1"/>
  <variable index="8650" value="1"/>
  <variable index="8727" value="1"/>
  <variable index="8813" value="1"/>
  <variable index="8946" value="1"/>
  <variable index="9020" value="1"/>
  <variable index="9188" value="1"/>
  <variable index="9253" value="1"/>
  <variable index="9359" value="1"/>
  <variable index="9424" value="1"/>
  <variable index="9604" value="1"/>
  <variable index="9701" value="1"/>
  <variable index="9796" value="1"/>
  <variable index="9836" value="1"/>
  <variable index="9914" value="1"/>
  <variable index="10014" value="1"/>
  <variable index="10016" value="1"/>
  <variable index="10018" value="1"/>
  <variable index="10020" value="688"/>
 </variables>
</CPLEXSolution>
